
--- Job pinturas.gms Start 06/15/21 11:52:29 34.3.0 rac355f3 WEX-WEI x86 64bit/MS Windows
--- Applying:
    C:\GAMS\34\gmsprmNT.txt
--- GAMS Parameters defined
    Input "D:\OneDrive - Universidad de Pamplona\Optimización de Procesos\Programas GAMS\pinturas.gms"
    PageWidth 80
    PageSize 0
    PageContr 3
    Action CE
    ScrDir "D:\OneDrive - Universidad de Pamplona\Optimización de Procesos\Programas GAMS\225a\"
    SysDir C:\GAMS\34\
    WorkDir "D:\OneDrive - Universidad de Pamplona\Optimización de Procesos\Programas GAMS\"
    LogOption 3
    DFormat 0
    TFormat 0
    ErrorLog 99
    IDE 1
Licensee: GAMS Demo license for Andres Sierra            G210406|0002CO-GEN
          Universidad de Pamplona, Colombia                        DL037498
          C:\GAMS\34\gamslice.txt
          andrew.lol.serra@gmail.com, Andres Sierra                        
          Demo license for demonstration and instructional purposes only
GAMS 34.3.0   Copyright (C) 1987-2021 GAMS Development. All rights reserved
--- Starting compilation
--- pinturas.gms(26) 3 Mb
--- Starting execution: elapsed 0:00:00.145
--- Generating MIP model pinturas
--- pinturas.gms(26) 4 Mb
---   9 rows  10 columns  28 non-zeroes
---   9 discrete-columns
--- Executing CPLEX (Solvelink=2): elapsed 0:00:01.016

IBM ILOG CPLEX   34.3.0 rac355f3 Released Feb 25, 2021 WEI x86 64bit/MS Window

--- *** This solver runs with a demo license. No commercial use.
--- GMO memory 0.50 Mb (peak 0.50 Mb)
--- Dictionary memory 0.00 Mb
--- Cplex 20.1.0.0 link memory 0.00 Mb (peak 0.00 Mb)
--- Starting Cplex

Version identifier: 20.1.0.0 | 2020-11-10 | 9bedb6d68
CPXPARAM_Advance                                 0
CPXPARAM_Simplex_Display                         2
CPXPARAM_Threads                                 1
CPXPARAM_MIP_Display                             4
CPXPARAM_MIP_Tolerances_AbsMIPGap                0
Generic callback                                 0x50
Found incumbent of value 253300.000000 after 0.13 sec. (0.00 ticks)
Tried aggregator 3 times.
MIP Presolve eliminated 4 rows and 4 columns.
MIP Presolve added 2 rows and 0 columns.
MIP Presolve modified 8 coefficients.
Aggregator did 6 substitutions.
All rows and columns eliminated.
Presolve time = 0.09 sec. (0.03 ticks)

Root node processing (before b&c):
  Real time             =    0.23 sec. (0.03 ticks)
Sequential b&c:
  Real time             =    0.00 sec. (0.00 ticks)
                          ------------
Total (root+branch&cut) =    0.23 sec. (0.03 ticks)

--- MIP status (101): integer optimal solution.
--- Cplex Time: 0.27sec (det. 0.03 ticks)

--- Fixing integer variables and solving final LP...

Version identifier: 20.1.0.0 | 2020-11-10 | 9bedb6d68
CPXPARAM_Advance                                 2
CPXPARAM_Simplex_Display                         2
CPXPARAM_Threads                                 1
CPXPARAM_MIP_Display                             4
CPXPARAM_MIP_Tolerances_AbsMIPGap                0
Tried aggregator 1 time.
LP Presolve eliminated 8 rows and 10 columns.
All rows and columns eliminated.
Presolve time = 0.05 sec. (0.00 ticks)

--- Fixed MIP status (1): optimal.
--- Cplex Time: 0.14sec (det. 0.01 ticks)


Proven optimal solution
MIP Solution:        55400.000000    (0 iterations, 0 nodes)
Final Solve:         55400.000000    (0 iterations)

Best possible:       55400.000000
Absolute gap:            0.000000
Relative gap:            0.000000

--- Reading solution for model pinturas
*** Status: Normal completion
--- Job pinturas.gms Stop 06/15/21 11:52:32 elapsed 0:00:03.455
